c 
p cnf 10 40
-8 -9 4 -3 7 0
-3 0
-6 0
7 -9 -4 -5 3 0
5 0
3 0
4 -6 0
10 -2 -8 0
10 -7 1 3 -5 0
8 2 5 0
2 0
-7 10 -3 -8 0
3 -1 -4 10 8 0
-5 -9 1 8 0
1 -5 2 10 8 0
-6 -7 -2 -5 0
3 6 -1 0
1 -5 2 -4 6 0
7 -2 1 -4 0
2 8 0
-1 6 0
-3 6 5 -10 -4 0
3 1 -9 -10 0
4 0
9 0
-3 8 -10 2 0
-7 3 -6 -9 0
-1 0
-6 0
4 -3 2 10 0
-5 -3 -4 0
-10 1 -4 -9 -3 0
-8 -6 0
-5 9 4 -1 0
1 10 2 8 -5 0
-9 6 10 7 0
-9 6 5 10 -3 0
-3 1 9 8 0
9 4 1 0
-6 2 0
